# Objective value = 309.931935705892
x[0] 1
x[1] 0
x[2] 1
x[3] 1
x[4] 0
x[5] 1
x[6] 0
x[7] 1
x[8] 0
x[9] 1
x[10] 0
x[11] 0
x[12] 1
x[13] 0
x[14] 0
x[15] 0
x[16] 1
x[17] 0
x[18] 0
x[19] 1
x[20] 0
x[21] 0
x[22] 1
x[23] 0
x[24] 1
x[25] 1
x[26] 1
x[27] 0
x[28] 1
x[29] 0
x[30] 1
x[31] 1
x[32] 1
x[33] 0
x[34] 0
x[35] 0
x[36] 0
x[37] 1
x[38] 1
x[39] 1
x[40] 1
x[41] 1
x[42] 1
x[43] 0
x[44] 0
x[45] 0
x[46] 0
x[47] 0
x[48] 1
x[49] 1
x[50] 0
x[51] 1
x[52] 0
x[53] 0
x[54] 0
x[55] 1
x[56] 0
x[57] 0
x[58] 1
x[59] 1
x[60] 0
x[61] 0
x[62] 1
x[63] 0
x[64] 0
x[65] 1
x[66] 0
x[67] 1
x[68] 0
x[69] 0
x[70] 0
x[71] 0
x[72] 0
x[73] 0
x[74] 0
x[75] 0
x[76] 1
x[77] 0
x[78] 0
x[79] 0
x[80] 1
x[81] 0
x[82] 1
x[83] 1
x[84] 0
x[85] 1
x[86] 0
x[87] 0
x[88] 0
x[89] 0
x[90] 0
x[91] 0
x[92] 1
x[93] 0
x[94] 0
x[95] 1
x[96] 0
x[97] 0
x[98] 1
x[99] 0
x[100] 0
x[101] 1
x[102] 0
x[103] 1
x[104] 0
x[105] 0
x[106] 1
x[107] 1
x[108] 0
x[109] 0
x[110] 1
x[111] 0
x[112] 1
x[113] 1
x[114] 0
x[115] 1
x[116] 0
x[117] 1
x[118] 1
x[119] 0
x[120] 1
x[121] 1
x[122] 1
x[123] 1
x[124] 1
x[125] 0
x[126] 0
x[127] 0
x[128] 1
x[129] 1
x[130] 1
x[131] 0
x[132] 1
x[133] 1
x[134] 0
x[135] 0
x[136] 1
x[137] 1
x[138] 1
x[139] 1
x[140] 1
x[141] 1
x[142] 0
x[143] 1
x[144] 1
x[145] 0
x[146] 1
x[147] 0
x[148] 0
x[149] 0
x[150] 0
x[151] 1
x[152] 1
x[153] 1
x[154] 0
x[155] 1
x[156] 0
x[157] 1
x[158] 0
x[159] 1
x[160] 0
x[161] 1
x[162] 1
x[163] 1
x[164] 1
x[165] 1
x[166] 1
x[167] 0
x[168] 1
x[169] 1
x[170] 0
x[171] 0
x[172] 1
x[173] 1
x[174] 1
x[175] 0
x[176] 1
x[177] 0
x[178] 0
x[179] 1
x[180] 0
x[181] 0
x[182] 1
x[183] 0
x[184] 0
x[185] 1
x[186] 1
x[187] 1
x[188] 1
x[189] 1
x[190] 1
x[191] 0
x[192] 1
x[193] 0
x[194] 1
x[195] 1
x[196] 1
x[197] 1
x[198] 1
x[199] 1
x[200] 1
x[201] 1
x[202] 1
x[203] 0
x[204] 1
x[205] 0
x[206] 1
x[207] 0
x[208] 0
x[209] 1
x[210] 0
x[211] 1
x[212] 1
x[213] 0
x[214] 0
x[215] 1
x[216] 0
x[217] 1
x[218] 0
x[219] 1
x[220] 0
x[221] 1
x[222] 1
x[223] 1
x[224] 1
x[225] 1
x[226] 1
x[227] 0
x[228] 1
x[229] 1
x[230] 1
x[231] 1
x[232] 1
x[233] 0
x[234] 1
x[235] 1
x[236] 0
x[237] 1
x[238] 0
x[239] 1
x[240] 0
x[241] 1
x[242] 1
x[243] 1
x[244] 1
x[245] 1
x[246] 1
x[247] 1
x[248] 1
x[249] 1
x[250] 0
x[251] 1
x[252] 0
x[253] 0
x[254] 0
x[255] 0
x[256] 0
x[257] 0
x[258] 0
x[259] 1
x[260] 0
x[261] 0
x[262] 1
x[263] 0
x[264] 1
x[265] 0
x[266] 1
x[267] 1
x[268] 0
x[269] 0
x[270] 0
x[271] 0
x[272] 0
x[273] 0
x[274] 0
x[275] 0
x[276] 0
x[277] 0
x[278] 0
x[279] 0
x[280] 0
x[281] 1
x[282] 1
x[283] 1
x[284] 1
x[285] 0
x[286] 0
x[287] 1
x[288] 0
x[289] 0
x[290] 1
x[291] 1
x[292] 1
x[293] 0
x[294] 1
x[295] 0
x[296] 1
x[297] 1
x[298] 0
x[299] 1
x[300] 1
x[301] 0
x[302] 1
x[303] 0
x[304] 0
x[305] 1
x[306] 0
x[307] 0
x[308] 0
x[309] 0
x[310] 0
x[311] 0
x[312] 1
x[313] 0
x[314] 1
x[315] 1
x[316] 0
x[317] 1
x[318] 0
x[319] 1
x[320] 0
x[321] 0
x[322] 1
x[323] 1
x[324] 1
x[325] 1
x[326] 0
x[327] 0
x[328] 1
x[329] 0
x[330] 1
x[331] 1
x[332] 0
x[333] 0
x[334] 0
x[335] 1
x[336] 0
x[337] 0
x[338] 1
x[339] 1
x[340] 1
x[341] 1
x[342] 1
x[343] 0
x[344] 0
x[345] 0
x[346] 0
x[347] 0
x[348] 1
x[349] 0
x[350] 0
x[351] 0
x[352] 1
x[353] 1
x[354] 0
x[355] 1
x[356] 0
x[357] 1
x[358] 0
x[359] 1
x[360] 1
x[361] 1
x[362] 1
x[363] 0
x[364] 1
x[365] 1
x[366] 1
x[367] 0
x[368] 0
x[369] 1
x[370] 0
x[371] 0
x[372] 0
x[373] 0
x[374] 0
x[375] 1
x[376] 0
x[377] 1
x[378] 0
x[379] 0
x[380] 1
x[381] 0
x[382] 1
x[383] 1
x[384] 1
x[385] 0
x[386] 1
x[387] 1
x[388] 0
x[389] 0
x[390] 0
x[391] 1
x[392] 1
x[393] 1
x[394] 0
x[395] 0
x[396] 1
x[397] 1
x[398] 0
x[399] 0
x[400] 1
x[401] 0
x[402] 1
x[403] 1
x[404] 1
x[405] 1
x[406] 0
x[407] 0
x[408] 0
x[409] 1
x[410] 0
x[411] 1
x[412] 0
x[413] 0
x[414] 0
x[415] 1
x[416] 1
x[417] 0
x[418] 0
x[419] 1
x[420] 1
x[421] 1
x[422] 0
x[423] 0
x[424] 0
x[425] 1
x[426] 1
x[427] 0
x[428] 0
x[429] 0
x[430] 0
x[431] 1
x[432] 0
x[433] 0
x[434] 1
x[435] 0
x[436] 0
x[437] 1
x[438] 1
x[439] 1
x[440] 0
x[441] 0
x[442] 0
x[443] 0
x[444] 0
x[445] 1
x[446] 1
x[447] 0
x[448] 1
x[449] 1
x[450] 0
x[451] 0
x[452] 1
x[453] 1
x[454] 1
x[455] 0
x[456] 0
x[457] 0
x[458] 0
x[459] 0
x[460] 0
x[461] 0
x[462] 0
x[463] 1
x[464] 0
x[465] 0
x[466] 1
x[467] 1
x[468] 1
x[469] 0
x[470] 1
x[471] 0
x[472] 1
x[473] 0
x[474] 0
x[475] 0
x[476] 0
x[477] 0
x[478] 1
x[479] 1
x[480] 1
x[481] 1
x[482] 0
x[483] 0
x[484] 0
x[485] 1
x[486] 0
x[487] 1
x[488] 1
x[489] 0
x[490] 1
x[491] 1
x[492] 0
x[493] 1
x[494] 0
x[495] 1
x[496] 1
x[497] 1
x[498] 0
x[499] 0
x[500] 1
x[501] 1
x[502] 0
x[503] 0
x[504] 0
x[505] 1
x[506] 0
x[507] 1
x[508] 0
x[509] 1
x[510] 0
x[511] 0
x[512] 1
x[513] 1
x[514] 1
x[515] 1
x[516] 0
x[517] 0
x[518] 0
x[519] 0
x[520] 1
x[521] 0
x[522] 0
x[523] 0
x[524] 0
x[525] 0
x[526] 0
x[527] 1
x[528] 0
x[529] 1
x[530] 1
x[531] 1
x[532] 0
x[533] 0
x[534] 0
x[535] 1
x[536] 0
x[537] 0
x[538] 0
x[539] 0
x[540] 0
x[541] 0
x[542] 0
x[543] 1
x[544] 0
x[545] 0
x[546] 0
x[547] 1
x[548] 0
x[549] 0
x[550] 1
x[551] 1
x[552] 1
x[553] 0
x[554] 0
x[555] 1
x[556] 0
x[557] 0
x[558] 0
x[559] 1
x[560] 0
x[561] 0
x[562] 0
x[563] 1
x[564] 1
x[565] 0
x[566] 1
x[567] 0
x[568] 0
x[569] 0
x[570] 0
x[571] 1
x[572] 1
x[573] 1
x[574] 0
x[575] 1
x[576] 1
x[577] 1
x[578] 0
x[579] 0
x[580] 0
x[581] 0
x[582] 0
x[583] 1
x[584] 1
x[585] 0
x[586] 0
x[587] 1
x[588] 1
x[589] 1
x[590] 1
x[591] 0
x[592] 0
x[593] 1
x[594] 0
x[595] 0
x[596] 1
x[597] 1
x[598] 1
x[599] 0
x[600] 1
x[601] 0
x[602] 1
x[603] 1
x[604] 0
x[605] 1
x[606] 0
x[607] 0
x[608] 1
x[609] 1
x[610] 1
x[611] 0
x[612] 1
x[613] 1
x[614] 1
x[615] 1
x[616] 0
x[617] 1
x[618] 1
x[619] 1
x[620] 1
x[621] 1
x[622] 1
x[623] 1
x[624] 0
x[625] 0
x[626] 0
x[627] 0
x[628] 0
x[629] 1
x[630] 1
x[631] 1
x[632] 1
x[633] 0
x[634] 0
x[635] 1
x[636] 0
x[637] 0
x[638] 0
x[639] 1
x[640] 1
x[641] 0
x[642] 0
x[643] 0
x[644] 1
x[645] 0
x[646] 0
x[647] 0
x[648] 1
x[649] 1
x[650] 0
x[651] 0
x[652] 1
x[653] 0
x[654] 1
x[655] 0
x[656] 0
x[657] 1
x[658] 1
x[659] 1
x[660] 1
x[661] 1
x[662] 0
x[663] 0
x[664] 0
x[665] 0
x[666] 1
x[667] 0
x[668] 0
x[669] 1
x[670] 0
x[671] 0
x[672] 1
x[673] 0
x[674] 1
x[675] 0
x[676] 1
x[677] 1
x[678] 0
x[679] 1
x[680] 0
x[681] 0
x[682] 1
x[683] 0
x[684] 0
x[685] 1
x[686] 1
x[687] 0
x[688] 0
x[689] 0
x[690] 0
x[691] 1
x[692] 0
x[693] 1
x[694] 0
x[695] 1
x[696] 0
x[697] 1
x[698] 1
x[699] 1
x[700] 1
x[701] 1
x[702] 1
x[703] 0
x[704] 1
x[705] 0
x[706] 1
x[707] 1
x[708] 0
x[709] 1
x[710] 1
x[711] 1
x[712] 0
x[713] 0
x[714] 0
x[715] 0
x[716] 0
x[717] 0
x[718] 0
x[719] 0
x[720] 0
x[721] 1
x[722] 0
x[723] 0
x[724] 1
x[725] 0
x[726] 1
x[727] 1
x[728] 1
x[729] 1
x[730] 1
x[731] 1
x[732] 0
x[733] 0
x[734] 0
x[735] 1
x[736] 0
x[737] 1
x[738] 1
x[739] 1
x[740] 0
x[741] 1
x[742] 0
x[743] 0
x[744] 0
x[745] 1
x[746] 1
x[747] 0
x[748] 0
x[749] 1
x[750] 1
x[751] 1
x[752] 0
x[753] 1
x[754] 1
x[755] 1
x[756] 0
x[757] 1
x[758] 1
x[759] 1
x[760] 1
x[761] 1
x[762] 1
x[763] 0
x[764] 0
x[765] 1
x[766] 1
x[767] 0
x[768] 0
x[769] 1
x[770] 1
x[771] 0
x[772] 1
x[773] 0
x[774] 1
x[775] 0
x[776] 0
x[777] 0
x[778] 0
x[779] 1
x[780] 0
x[781] 1
x[782] 1
x[783] 1
x[784] 0
x[785] 0
x[786] 0
x[787] 0
x[788] 0
x[789] 1
x[790] 0
x[791] 1
x[792] 0
x[793] 1
x[794] 1
x[795] 0
x[796] 1
x[797] 0
x[798] 0
x[799] 0
x[800] 0
x[801] 0
x[802] 1
x[803] 0
x[804] 1
x[805] 1
x[806] 1
x[807] 1
x[808] 0
x[809] 0
x[810] 0
x[811] 0
x[812] 0
x[813] 1
x[814] 0
x[815] 1
x[816] 1
x[817] 1
x[818] 1
x[819] 0
x[820] 1
x[821] 0
x[822] 1
x[823] 1
x[824] 0
x[825] 0
x[826] 1
x[827] 1
x[828] 0
x[829] 1
x[830] 0
x[831] 1
x[832] 0
x[833] 0
x[834] 1
x[835] 1
x[836] 1
x[837] 1
x[838] 0
x[839] 0
x[840] 0
x[841] 1
x[842] 0
x[843] 1
x[844] 1
x[845] 0
x[846] 1
x[847] 1
x[848] 0
x[849] 0
x[850] 0
x[851] 1
x[852] 1
x[853] 0
x[854] 0
x[855] 0
x[856] 1
x[857] 0
x[858] 1
x[859] 0
x[860] 1
x[861] 0
x[862] 0
x[863] 0
x[864] 0
x[865] 0
x[866] 1
x[867] 0
x[868] 1
x[869] 0
x[870] 0
x[871] 1
x[872] 1
x[873] 0
x[874] 0
x[875] 0
x[876] 0
x[877] 1
x[878] 1
x[879] 0
x[880] 1
x[881] 1
x[882] 1
x[883] 0
x[884] 0
x[885] 0
x[886] 0
x[887] 1
x[888] 0
x[889] 1
x[890] 1
x[891] 0
x[892] 1
x[893] 1
x[894] 1
x[895] 1
x[896] 1
x[897] 1
x[898] 0
x[899] 0
x[900] 0
x[901] 0
x[902] 0
x[903] 1
x[904] 0
x[905] 1
x[906] 0
x[907] 1
x[908] 0
x[909] 0
x[910] 1
x[911] 1
x[912] 1
x[913] 1
x[914] 0
x[915] 1
x[916] 1
x[917] 0
x[918] 0
x[919] 1
x[920] 0
x[921] 1
x[922] 1
x[923] 0
x[924] 0
x[925] 1
x[926] 0
x[927] 0
x[928] 1
x[929] 1
x[930] 0
x[931] 1
x[932] 1
x[933] 1
x[934] 0
x[935] 0
x[936] 1
x[937] 1
x[938] 1
x[939] 1
x[940] 1
x[941] 1
x[942] 0
x[943] 0
x[944] 0
x[945] 1
x[946] 0
x[947] 0
x[948] 0
x[949] 1
x[950] 0
x[951] 0
x[952] 0
x[953] 1
x[954] 0
x[955] 0
x[956] 0
x[957] 0
x[958] 1
x[959] 0
x[960] 0
x[961] 1
x[962] 1
x[963] 1
x[964] 0
x[965] 0
x[966] 1
x[967] 0
x[968] 0
x[969] 0
x[970] 1
x[971] 1
x[972] 1
x[973] 0
x[974] 0
x[975] 1
x[976] 0
x[977] 1
x[978] 1
x[979] 0
x[980] 0
x[981] 0
x[982] 0
x[983] 0
x[984] 1
x[985] 1
x[986] 0
x[987] 0
x[988] 0
x[989] 1
x[990] 0
x[991] 0
x[992] 0
x[993] 1
x[994] 0
x[995] 1
x[996] 0
x[997] 1
x[998] 1
x[999] 1
